data/mip_solutions/chen_grossmann_miller/transportation/unbalanced5_gurobi.sol
Elapsed time: 0.263748168945
Nodes explored: 16
Upper bound: 16.0
Lower bound: 16.0
y[0,0]=1
y[0,3]=1
y[0,5]=1
y[1,1]=1
y[1,4]=1
y[2,0]=1
y[2,2]=1
y[3,0]=1
y[3,1]=1
y[3,5]=1
y[4,0]=1
y[4,2]=1
y[4,4]=1
y[5,0]=1
y[5,4]=1
y[6,0]=1
q[0,2,0,3]=20.0
q[0,2,3,2]=25.0
q[0,2,3,3]=75.0
q[0,3,0,3]=180.0
q[0,4,0,6]=35.0
q[0,4,3,4]=25.0
q[0,5,0,5]=109.0
q[0,5,0,6]=31.0
q[0,5,3,5]=100.0
q[0,6,0,6]=315.0
q[0,6,3,6]=225.0
q[0,7,0,7]=240.0
q[0,8,5,11]=60.0
q[0,9,5,11]=240.0
q[1,5,1,6]=10.0
q[1,5,4,5]=70.0
q[1,6,4,6]=180.0
q[1,7,1,7]=80.0
q[1,8,4,8]=20.0
q[1,9,1,9]=80.0
q[2,3,0,3]=15.0
q[2,4,0,5]=1.0
q[2,4,2,5]=4.0
q[2,5,0,6]=20.0
q[2,6,0,6]=9.0
q[2,6,2,6]=36.0
q[2,7,0,7]=20.0
q[2,8,2,9]=5.0
q[2,9,2,9]=5.0
q[3,6,0,6]=580.0
q[3,6,1,6]=140.0
q[3,7,0,7]=280.0
q[3,7,1,7]=40.0
q[3,7,1,9]=6.06625860655e-13
q[3,7,2,9]=1.02318153949e-12
q[3,8,1,8]=30.0
q[3,8,2,9]=1.02318153949e-12
q[3,8,5,11]=50.0
q[3,9,1,9]=70.0
q[3,9,5,11]=330.0
q[3,10,5,11]=80.0
q[4,1,0,2]=60.0
q[4,1,0,3]=1.94688709598e-12
q[4,2,0,3]=20.0
q[4,2,4,2]=40.0
q[4,3,0,3]=90.0
q[4,4,4,4]=20.0
q[4,4,4,5]=10.0
q[4,5,0,5]=120.0
q[4,6,0,6]=270.0
q[4,7,0,7]=20.0
q[4,7,2,7]=16.0
q[4,7,2,9]=4.0
q[4,7,2,10]=7.24753590475e-13
q[4,7,4,7]=80.0
q[4,8,2,8]=4.0
q[4,8,2,9]=6.0
q[4,8,2,10]=20.0
q[4,8,4,8]=1.02318153949e-12
q[5,0,0,1]=140.0
q[5,0,0,2]=220.0
q[5,0,0,3]=95.0
q[5,0,4,0]=80.0
q[5,0,4,1]=40.0
q[5,0,4,3]=60.0
q[6,4,0,4]=140.0
q[6,4,0,5]=330.0
