data/mip_solutions/chen_grossmann_miller/transportation/unbalanced5_gurobi.log

Gurobi 6.5.2 (linux64) logging started Mon Jun 19 13:07:01 2017

Changed value of parameter LogFile to test_cases/mip_solutions/chen_grossman_miller/transportation/unbalanced5_gurobi.log
   Prev: gurobi.log  Default: 
Changed value of parameter Threads to 1
   Prev: 0  Min: 0  Max: 1024  Default: 0
Optimize a model with 2972 rows, 6092 columns and 20998 nonzeros
Coefficient statistics:
  Matrix range    [1e+00, 1e+03]
  Objective range [1e+00, 1e+00]
  Bounds range    [1e+00, 1e+00]
  RHS range       [1e+00, 1e+03]
Presolve removed 2875 rows and 5520 columns
Presolve time: 0.00s
Presolved: 97 rows, 572 columns, 1650 nonzeros
Variable types: 538 continuous, 34 integer (34 binary)

Root relaxation: objective 1.182912e+01, 328 iterations, 0.00 seconds

    Nodes    |    Current Node    |     Objective Bounds      |     Work
 Expl Unexpl |  Obj  Depth IntInf | Incumbent    BestBd   Gap | It/Node Time

     0     0   11.82912    0   12          -   11.82912      -     -    0s
H    0     0                      18.0000000   11.82912  34.3%     -    0s
     0     0   12.51241    0   20   18.00000   12.51241  30.5%     -    0s
     0     0   12.54709    0   20   18.00000   12.54709  30.3%     -    0s
     0     0   13.13116    0   17   18.00000   13.13116  27.0%     -    0s
     0     0   13.19349    0   21   18.00000   13.19349  26.7%     -    0s
     0     0   13.39675    0   22   18.00000   13.39675  25.6%     -    0s
     0     0   13.41596    0   19   18.00000   13.41596  25.5%     -    0s
     0     0   13.61607    0   20   18.00000   13.61607  24.4%     -    0s
     0     0   13.81249    0   20   18.00000   13.81249  23.3%     -    0s
     0     0   14.38140    0   25   18.00000   14.38140  20.1%     -    0s
     0     0   14.54070    0   21   18.00000   14.54070  19.2%     -    0s
     0     0   14.63605    0   23   18.00000   14.63605  18.7%     -    0s
     0     0   14.70321    0   22   18.00000   14.70321  18.3%     -    0s
     0     0   14.74000    0   25   18.00000   14.74000  18.1%     -    0s
     0     0   14.76794    0   22   18.00000   14.76794  18.0%     -    0s
     0     0   15.00234    0   21   18.00000   15.00234  16.7%     -    0s
     0     0   15.07928    0   24   18.00000   15.07928  16.2%     -    0s
     0     0   15.50000    0   22   18.00000   15.50000  13.9%     -    0s
     0     0   15.50000    0   20   18.00000   15.50000  13.9%     -    0s
     0     0   15.50000    0   20   18.00000   15.50000  13.9%     -    0s
     0     0   15.50000    0   21   18.00000   15.50000  13.9%     -    0s
     0     0   15.50000    0   22   18.00000   15.50000  13.9%     -    0s
     0     0   15.50000    0    5   18.00000   15.50000  13.9%     -    0s
H    0     0                      17.0000000   15.50000  8.82%     -    0s
     0     2   16.00000    0    5   17.00000   16.00000  5.88%     -    0s
*   15     3               5      16.0000000   16.00000  0.00%  10.6    0s

Cutting planes:
  Cover: 4
  Implied bound: 13
  MIR: 10
  Flow cover: 13
  Network: 1

Explored 16 nodes (2573 simplex iterations) in 0.15 seconds
Thread count was 1 (of 8 available processors)

Optimal solution found (tolerance 4.00e-02)
Best objective 1.600000000000e+01, best bound 1.600000000000e+01, gap 0.0%

Gurobi 6.5.2 (linux64) logging started Mon Jul 24 16:47:21 2017

Changed value of parameter LogFile to data/mip_solutions/chen_grossman_miller/transportation/unbalanced5_gurobi.log
   Prev: gurobi.log  Default: 
Changed value of parameter Threads to 1
   Prev: 0  Min: 0  Max: 1024  Default: 0
Optimize a model with 2972 rows, 6092 columns and 20998 nonzeros
Coefficient statistics:
  Matrix range    [1e+00, 1e+03]
  Objective range [1e+00, 1e+00]
  Bounds range    [1e+00, 1e+00]
  RHS range       [1e+00, 1e+03]
Presolve removed 2875 rows and 5520 columns
Presolve time: 0.00s
Presolved: 97 rows, 572 columns, 1650 nonzeros
Variable types: 538 continuous, 34 integer (34 binary)

Root relaxation: objective 1.182912e+01, 328 iterations, 0.00 seconds

    Nodes    |    Current Node    |     Objective Bounds      |     Work
 Expl Unexpl |  Obj  Depth IntInf | Incumbent    BestBd   Gap | It/Node Time

     0     0   11.82912    0   12          -   11.82912      -     -    0s
H    0     0                      18.0000000   11.82912  34.3%     -    0s
     0     0   12.51241    0   20   18.00000   12.51241  30.5%     -    0s
     0     0   12.54709    0   20   18.00000   12.54709  30.3%     -    0s
     0     0   13.13116    0   17   18.00000   13.13116  27.0%     -    0s
     0     0   13.19349    0   21   18.00000   13.19349  26.7%     -    0s
     0     0   13.39675    0   22   18.00000   13.39675  25.6%     -    0s
     0     0   13.41596    0   19   18.00000   13.41596  25.5%     -    0s
     0     0   13.61607    0   20   18.00000   13.61607  24.4%     -    0s
     0     0   13.81249    0   20   18.00000   13.81249  23.3%     -    0s
     0     0   14.38140    0   25   18.00000   14.38140  20.1%     -    0s
     0     0   14.54070    0   21   18.00000   14.54070  19.2%     -    0s
     0     0   14.63605    0   23   18.00000   14.63605  18.7%     -    0s
     0     0   14.70321    0   22   18.00000   14.70321  18.3%     -    0s
     0     0   14.74000    0   25   18.00000   14.74000  18.1%     -    0s
     0     0   14.76794    0   22   18.00000   14.76794  18.0%     -    0s
     0     0   15.00234    0   21   18.00000   15.00234  16.7%     -    0s
     0     0   15.07928    0   24   18.00000   15.07928  16.2%     -    0s
     0     0   15.50000    0   22   18.00000   15.50000  13.9%     -    0s
     0     0   15.50000    0   20   18.00000   15.50000  13.9%     -    0s
     0     0   15.50000    0   20   18.00000   15.50000  13.9%     -    0s
     0     0   15.50000    0   21   18.00000   15.50000  13.9%     -    0s
     0     0   15.50000    0   22   18.00000   15.50000  13.9%     -    0s
     0     0   15.50000    0    5   18.00000   15.50000  13.9%     -    0s
H    0     0                      17.0000000   15.50000  8.82%     -    0s
     0     2   16.00000    0    5   17.00000   16.00000  5.88%     -    0s
*   15     3               5      16.0000000   16.00000  0.00%  10.6    0s

Cutting planes:
  Cover: 4
  Implied bound: 13
  MIR: 10
  Flow cover: 13
  Network: 1

Explored 16 nodes (2573 simplex iterations) in 0.12 seconds
Thread count was 1 (of 8 available processors)

Optimal solution found (tolerance 4.00e-02)
Best objective 1.600000000000e+01, best bound 1.600000000000e+01, gap 0.0%

Gurobi 6.5.2 (linux64) logging started Mon Jul 24 17:00:32 2017

Changed value of parameter LogFile to data/mip_solutions/chen_grossman_miller/transportation/unbalanced5_gurobi.log
   Prev: gurobi.log  Default: 
Changed value of parameter Threads to 1
   Prev: 0  Min: 0  Max: 1024  Default: 0
Optimize a model with 2972 rows, 6092 columns and 20998 nonzeros
Coefficient statistics:
  Matrix range    [1e+00, 1e+03]
  Objective range [1e+00, 1e+00]
  Bounds range    [1e+00, 1e+00]
  RHS range       [1e+00, 1e+03]
Presolve removed 2875 rows and 5520 columns
Presolve time: 0.00s
Presolved: 97 rows, 572 columns, 1650 nonzeros
Variable types: 538 continuous, 34 integer (34 binary)

Root relaxation: objective 1.182912e+01, 328 iterations, 0.00 seconds

    Nodes    |    Current Node    |     Objective Bounds      |     Work
 Expl Unexpl |  Obj  Depth IntInf | Incumbent    BestBd   Gap | It/Node Time

     0     0   11.82912    0   12          -   11.82912      -     -    0s
H    0     0                      18.0000000   11.82912  34.3%     -    0s
     0     0   12.51241    0   20   18.00000   12.51241  30.5%     -    0s
     0     0   12.54709    0   20   18.00000   12.54709  30.3%     -    0s
     0     0   13.13116    0   17   18.00000   13.13116  27.0%     -    0s
     0     0   13.19349    0   21   18.00000   13.19349  26.7%     -    0s
     0     0   13.39675    0   22   18.00000   13.39675  25.6%     -    0s
     0     0   13.41596    0   19   18.00000   13.41596  25.5%     -    0s
     0     0   13.61607    0   20   18.00000   13.61607  24.4%     -    0s
     0     0   13.81249    0   20   18.00000   13.81249  23.3%     -    0s
     0     0   14.38140    0   25   18.00000   14.38140  20.1%     -    0s
     0     0   14.54070    0   21   18.00000   14.54070  19.2%     -    0s
     0     0   14.63605    0   23   18.00000   14.63605  18.7%     -    0s
     0     0   14.70321    0   22   18.00000   14.70321  18.3%     -    0s
     0     0   14.74000    0   25   18.00000   14.74000  18.1%     -    0s
     0     0   14.76794    0   22   18.00000   14.76794  18.0%     -    0s
     0     0   15.00234    0   21   18.00000   15.00234  16.7%     -    0s
     0     0   15.07928    0   24   18.00000   15.07928  16.2%     -    0s
     0     0   15.50000    0   22   18.00000   15.50000  13.9%     -    0s
     0     0   15.50000    0   20   18.00000   15.50000  13.9%     -    0s
     0     0   15.50000    0   20   18.00000   15.50000  13.9%     -    0s
     0     0   15.50000    0   21   18.00000   15.50000  13.9%     -    0s
     0     0   15.50000    0   22   18.00000   15.50000  13.9%     -    0s
     0     0   15.50000    0    5   18.00000   15.50000  13.9%     -    0s
H    0     0                      17.0000000   15.50000  8.82%     -    0s
     0     2   16.00000    0    5   17.00000   16.00000  5.88%     -    0s
*   15     3               5      16.0000000   16.00000  0.00%  10.6    0s

Cutting planes:
  Cover: 4
  Implied bound: 13
  MIR: 10
  Flow cover: 13
  Network: 1

Explored 16 nodes (2573 simplex iterations) in 0.12 seconds
Thread count was 1 (of 8 available processors)

Optimal solution found (tolerance 4.00e-02)
Best objective 1.600000000000e+01, best bound 1.600000000000e+01, gap 0.0%

Gurobi 6.5.2 (linux64) logging started Thu Jul 27 14:25:18 2017

Changed value of parameter LogFile to data/mip_solutions/chen_grossman_miller/transportation/unbalanced5_gurobi.log
   Prev: gurobi.log  Default: 
Changed value of parameter Threads to 1
   Prev: 0  Min: 0  Max: 1024  Default: 0
Optimize a model with 2972 rows, 6092 columns and 20998 nonzeros
Coefficient statistics:
  Matrix range    [1e+00, 1e+03]
  Objective range [1e+00, 1e+00]
  Bounds range    [1e+00, 1e+00]
  RHS range       [1e+00, 1e+03]
Presolve removed 2875 rows and 5520 columns
Presolve time: 0.01s
Presolved: 97 rows, 572 columns, 1650 nonzeros
Variable types: 538 continuous, 34 integer (34 binary)

Root relaxation: objective 1.182912e+01, 328 iterations, 0.00 seconds

    Nodes    |    Current Node    |     Objective Bounds      |     Work
 Expl Unexpl |  Obj  Depth IntInf | Incumbent    BestBd   Gap | It/Node Time

     0     0   11.82912    0   12          -   11.82912      -     -    0s
H    0     0                      18.0000000   11.82912  34.3%     -    0s
     0     0   12.51241    0   20   18.00000   12.51241  30.5%     -    0s
     0     0   12.54709    0   20   18.00000   12.54709  30.3%     -    0s
     0     0   13.13116    0   17   18.00000   13.13116  27.0%     -    0s
     0     0   13.19349    0   21   18.00000   13.19349  26.7%     -    0s
     0     0   13.39675    0   22   18.00000   13.39675  25.6%     -    0s
     0     0   13.41596    0   19   18.00000   13.41596  25.5%     -    0s
     0     0   13.61607    0   20   18.00000   13.61607  24.4%     -    0s
     0     0   13.81249    0   20   18.00000   13.81249  23.3%     -    0s
     0     0   14.38140    0   25   18.00000   14.38140  20.1%     -    0s
     0     0   14.54070    0   21   18.00000   14.54070  19.2%     -    0s
     0     0   14.63605    0   23   18.00000   14.63605  18.7%     -    0s
     0     0   14.70321    0   22   18.00000   14.70321  18.3%     -    0s
     0     0   14.74000    0   25   18.00000   14.74000  18.1%     -    0s
     0     0   14.76794    0   22   18.00000   14.76794  18.0%     -    0s
     0     0   15.00234    0   21   18.00000   15.00234  16.7%     -    0s
     0     0   15.07928    0   24   18.00000   15.07928  16.2%     -    0s
     0     0   15.50000    0   22   18.00000   15.50000  13.9%     -    0s
     0     0   15.50000    0   20   18.00000   15.50000  13.9%     -    0s
     0     0   15.50000    0   20   18.00000   15.50000  13.9%     -    0s
     0     0   15.50000    0   21   18.00000   15.50000  13.9%     -    0s
     0     0   15.50000    0   22   18.00000   15.50000  13.9%     -    0s
     0     0   15.50000    0    5   18.00000   15.50000  13.9%     -    0s
H    0     0                      17.0000000   15.50000  8.82%     -    0s
     0     2   16.00000    0    5   17.00000   16.00000  5.88%     -    0s
*   15     3               5      16.0000000   16.00000  0.00%  10.6    0s

Cutting planes:
  Cover: 4
  Implied bound: 13
  MIR: 10
  Flow cover: 13
  Network: 1

Explored 16 nodes (2573 simplex iterations) in 0.12 seconds
Thread count was 1 (of 8 available processors)

Optimal solution found (tolerance 4.00e-02)
Best objective 1.600000000000e+01, best bound 1.600000000000e+01, gap 0.0%
